(set-info :source |printed by MathSAT|)
(declare-fun call_firefly.ite25 () Int)
(declare-fun call_firefly.ite7 () Int)
(declare-fun call_firefly.flby5 () Int)
(declare-fun call_firefly.ite17 () Int)
(declare-fun call_firefly.garde6 () Bool)
(declare-fun call_firefly.flby () Int)
(declare-fun call_firefly.ite31 () Int)
(declare-fun call_firefly.ite26 () Int)
(declare-fun call_firefly.invalid () Int)
(declare-fun param_e2 () Bool)
(declare-fun call_firefly.flby4 () Int)
(declare-fun call_excludes8.excludes () Bool)
(declare-fun param_i_invalid () Int)
(declare-fun call_firefly.ite30 () Int)
(declare-fun param_e6 () Bool)
(declare-fun call_firefly.ite38 () Int)
(declare-fun call_firefly.exclusive () Int)
(declare-fun call_firefly.ite4 () Int)
(declare-fun call_firefly.ite33 () Int)
(declare-fun shared () Int)
(declare-fun call_firefly.ite35 () Int)
(declare-fun call_firefly.ite6 () Int)
(declare-fun param_e3 () Bool)
(declare-fun param_e7 () Bool)
(declare-fun exclusive () Int)
(declare-fun call_firefly.ite23 () Int)
(declare-fun call_firefly.ite13 () Int)
(declare-fun call_firefly.ite3 () Int)
(declare-fun env () Bool)
(declare-fun call_firefly.ite28 () Int)
(declare-fun call_firefly.garde3 () Bool)
(declare-fun call_firefly.ite16 () Int)
(declare-fun call_firefly.ite22 () Int)
(declare-fun call_firefly.ite () Int)
(declare-fun flby () Bool)
(declare-fun call_firefly.ite40 () Int)
(declare-fun call_firefly.ite37 () Int)
(declare-fun call_firefly.ite10 () Int)
(declare-fun call_firefly.ite19 () Int)
(declare-fun call_firefly.ite36 () Int)
(declare-fun call_firefly.ite27 () Int)
(declare-fun call_firefly.ite12 () Int)
(declare-fun call_firefly.dirty () Int)
(declare-fun call_firefly.ite18 () Int)
(declare-fun call_firefly.ite32 () Int)
(declare-fun call_firefly.ite29 () Int)
(declare-fun call_firefly.flby2 () Int)
(declare-fun invalid () Int)
(declare-fun call_firefly.ite21 () Int)
(declare-fun call_firefly.ite34 () Int)
(declare-fun call_firefly.ite24 () Int)
(declare-fun call_firefly.ite8 () Int)
(declare-fun call_Sofar.Sofar () Bool)
(declare-fun call_firefly.ite20 () Int)
(declare-fun call_firefly.ite15 () Int)
(declare-fun call_firefly.flby3 () Int)
(declare-fun call_firefly.ite2 () Int)
(declare-fun call_firefly.shared () Int)
(declare-fun param_e5 () Bool)
(declare-fun param_e1 () Bool)
(declare-fun _OK_ () Bool)
(declare-fun param_e4 () Bool)
(declare-fun call_firefly.ite9 () Int)
(declare-fun call_firefly.garde8 () Bool)
(declare-fun call_firefly.mem_invalid () Int)
(declare-fun call_firefly.ite5 () Int)
(declare-fun call_firefly.ite14 () Int)
(declare-fun call_firefly.ite11 () Int)
(declare-fun call_firefly.ite39 () Int)
(declare-fun dirty () Int)
(declare-fun param_e8 () Bool)
(declare-fun call_Sofar.flby () Bool)
(define-fun .def_1113 () Bool (= call_Sofar.flby call_Sofar.Sofar))
(define-fun .def_923 () Bool (not param_e1))
(define-fun .def_896 () Bool (not param_e2))
(define-fun .def_1061 () Bool (and .def_896 .def_923))
(define-fun .def_942 () Bool (not param_e3))
(define-fun .def_1062 () Bool (and .def_942 .def_1061))
(define-fun .def_967 () Bool (not param_e4))
(define-fun .def_1063 () Bool (and .def_967 .def_1062))
(define-fun .def_984 () Bool (not param_e5))
(define-fun .def_1064 () Bool (and .def_984 .def_1063))
(define-fun .def_1002 () Bool (not param_e6))
(define-fun .def_1065 () Bool (and .def_1002 .def_1064))
(define-fun .def_827 () Bool (not param_e7))
(define-fun .def_1066 () Bool (and .def_827 .def_1065))
(define-fun .def_835 () Bool (not param_e8))
(define-fun .def_1102 () Bool (and .def_835 .def_1066))
(define-fun .def_1095 () Bool (and .def_896 param_e1))
(define-fun .def_1096 () Bool (and .def_942 .def_1095))
(define-fun .def_1097 () Bool (and .def_967 .def_1096))
(define-fun .def_1098 () Bool (and .def_984 .def_1097))
(define-fun .def_1099 () Bool (and .def_1002 .def_1098))
(define-fun .def_1100 () Bool (and .def_827 .def_1099))
(define-fun .def_1101 () Bool (and .def_835 .def_1100))
(define-fun .def_1103 () Bool (or .def_1101 .def_1102))
(define-fun .def_1088 () Bool (and param_e2 .def_923))
(define-fun .def_1089 () Bool (and .def_942 .def_1088))
(define-fun .def_1090 () Bool (and .def_967 .def_1089))
(define-fun .def_1091 () Bool (and .def_984 .def_1090))
(define-fun .def_1092 () Bool (and .def_1002 .def_1091))
(define-fun .def_1093 () Bool (and .def_827 .def_1092))
(define-fun .def_1094 () Bool (and .def_835 .def_1093))
(define-fun .def_1104 () Bool (or .def_1094 .def_1103))
(define-fun .def_1082 () Bool (and param_e3 .def_1061))
(define-fun .def_1083 () Bool (and .def_967 .def_1082))
(define-fun .def_1084 () Bool (and .def_984 .def_1083))
(define-fun .def_1085 () Bool (and .def_1002 .def_1084))
(define-fun .def_1086 () Bool (and .def_827 .def_1085))
(define-fun .def_1087 () Bool (and .def_835 .def_1086))
(define-fun .def_1105 () Bool (or .def_1087 .def_1104))
(define-fun .def_1077 () Bool (and param_e4 .def_1062))
(define-fun .def_1078 () Bool (and .def_984 .def_1077))
(define-fun .def_1079 () Bool (and .def_1002 .def_1078))
(define-fun .def_1080 () Bool (and .def_827 .def_1079))
(define-fun .def_1081 () Bool (and .def_835 .def_1080))
(define-fun .def_1106 () Bool (or .def_1081 .def_1105))
(define-fun .def_1073 () Bool (and param_e5 .def_1063))
(define-fun .def_1074 () Bool (and .def_1002 .def_1073))
(define-fun .def_1075 () Bool (and .def_827 .def_1074))
(define-fun .def_1076 () Bool (and .def_835 .def_1075))
(define-fun .def_1107 () Bool (or .def_1076 .def_1106))
(define-fun .def_1070 () Bool (and param_e6 .def_1064))
(define-fun .def_1071 () Bool (and .def_827 .def_1070))
(define-fun .def_1072 () Bool (and .def_835 .def_1071))
(define-fun .def_1108 () Bool (or .def_1072 .def_1107))
(define-fun .def_1068 () Bool (and param_e7 .def_1065))
(define-fun .def_1069 () Bool (and .def_835 .def_1068))
(define-fun .def_1109 () Bool (or .def_1069 .def_1108))
(define-fun .def_1067 () Bool (and param_e8 .def_1066))
(define-fun .def_1110 () Bool (or .def_1067 .def_1109))
(define-fun .def_1111 () Bool (= call_excludes8.excludes .def_1110))
(define-fun .def_1059 () Bool (= call_firefly.flby call_firefly.mem_invalid))
(define-fun .def_1057 () Bool (= call_firefly.flby5 call_firefly.shared))
(define-fun .def_1055 () Bool (= call_firefly.flby4 call_firefly.exclusive))
(define-fun .def_1053 () Bool (= call_firefly.flby3 call_firefly.dirty))
(define-fun .def_1051 () Bool (= call_firefly.flby2 call_firefly.invalid))
(define-fun .def_1049 () Bool (= env call_Sofar.Sofar))
(define-fun .def_1046 () Bool (= shared call_firefly.shared))
(define-fun .def_1042 () Bool (= exclusive call_firefly.exclusive))
(define-fun .def_1038 () Bool (= dirty call_firefly.dirty))
(define-fun .def_1034 () Bool (= invalid call_firefly.invalid))
(define-fun .def_1028 () Bool (not env))
(define-fun .def_1029 () Bool (or flby .def_1028))
(define-fun .def_1030 () Bool (= _OK_ .def_1029))
(define-fun .def_1022 () Bool (= call_firefly.ite36 call_firefly.ite37))
(define-fun .def_1023 () Bool (or param_e7 .def_1022))
(define-fun .def_1019 () Bool (= call_firefly.ite37 call_firefly.ite34))
(define-fun .def_1020 () Bool (or .def_827 .def_1019))
(define-fun .def_1015 () Bool (= call_firefly.ite8 call_firefly.ite5))
(define-fun .def_1016 () Bool (or .def_827 .def_1015))
(define-fun .def_1012 () Bool (= call_firefly.ite7 call_firefly.ite8))
(define-fun .def_1013 () Bool (or param_e7 .def_1012))
(define-fun .def_1017 () Bool (and .def_1013 .def_1016))
(define-fun .def_1021 () Bool (and .def_1017 .def_1020))
(define-fun .def_1024 () Bool (and .def_1021 .def_1023))
(define-fun .def_1008 () Bool (= call_firefly.ite17 call_firefly.ite18))
(define-fun .def_1009 () Bool (or param_e6 .def_1008))
(define-fun .def_1005 () Bool (= call_firefly.ite15 call_firefly.ite18))
(define-fun .def_1006 () Bool (or .def_1002 .def_1005))
(define-fun .def_1001 () Bool (= call_firefly.ite9 call_firefly.ite4))
(define-fun .def_1003 () Bool (or .def_1001 .def_1002))
(define-fun .def_997 () Bool (= call_firefly.ite9 call_firefly.ite8))
(define-fun .def_999 () Bool (or .def_997 param_e6))
(define-fun .def_1004 () Bool (and .def_999 .def_1003))
(define-fun .def_1007 () Bool (and .def_1004 .def_1006))
(define-fun .def_1010 () Bool (and .def_1007 .def_1009))
(define-fun .def_992 () Bool (= call_firefly.ite38 call_firefly.ite37))
(define-fun .def_993 () Bool (or param_e5 .def_992))
(define-fun .def_988 () Bool (= call_firefly.ite38 call_firefly.ite33))
(define-fun .def_989 () Bool (or .def_984 .def_988))
(define-fun .def_983 () Bool (= call_firefly.ite27 call_firefly.ite24))
(define-fun .def_985 () Bool (or .def_983 .def_984))
(define-fun .def_979 () Bool (= call_firefly.ite26 call_firefly.ite27))
(define-fun .def_981 () Bool (or .def_979 param_e5))
(define-fun .def_986 () Bool (and .def_981 .def_985))
(define-fun .def_990 () Bool (and .def_986 .def_989))
(define-fun .def_994 () Bool (and .def_990 .def_993))
(define-fun .def_975 () Bool (= call_firefly.ite28 call_firefly.ite27))
(define-fun .def_976 () Bool (or param_e4 .def_975))
(define-fun .def_971 () Bool (= call_firefly.ite28 call_firefly.ite23))
(define-fun .def_972 () Bool (or .def_967 .def_971))
(define-fun .def_966 () Bool (= call_firefly.ite19 call_firefly.ite14))
(define-fun .def_968 () Bool (or .def_966 .def_967))
(define-fun .def_962 () Bool (= call_firefly.ite19 call_firefly.ite18))
(define-fun .def_964 () Bool (or .def_962 param_e4))
(define-fun .def_969 () Bool (and .def_964 .def_968))
(define-fun .def_973 () Bool (and .def_969 .def_972))
(define-fun .def_977 () Bool (and .def_973 .def_976))
(define-fun .def_957 () Bool (= call_firefly.ite39 call_firefly.ite38))
(define-fun .def_958 () Bool (or param_e3 .def_957))
(define-fun .def_953 () Bool (= call_firefly.ite39 call_firefly.ite32))
(define-fun .def_954 () Bool (or .def_942 .def_953))
(define-fun .def_949 () Bool (= call_firefly.ite29 call_firefly.ite28))
(define-fun .def_950 () Bool (or param_e3 .def_949))
(define-fun .def_945 () Bool (= call_firefly.ite22 call_firefly.ite29))
(define-fun .def_946 () Bool (or .def_942 .def_945))
(define-fun .def_941 () Bool (= call_firefly.ite10 call_firefly.ite3))
(define-fun .def_943 () Bool (or .def_941 .def_942))
(define-fun .def_937 () Bool (= call_firefly.ite10 call_firefly.ite9))
(define-fun .def_939 () Bool (or .def_937 param_e3))
(define-fun .def_944 () Bool (and .def_939 .def_943))
(define-fun .def_947 () Bool (and .def_944 .def_946))
(define-fun .def_951 () Bool (and .def_947 .def_950))
(define-fun .def_955 () Bool (and .def_951 .def_954))
(define-fun .def_959 () Bool (and .def_955 .def_958))
(define-fun .def_932 () Bool (= call_firefly.ite30 call_firefly.ite29))
(define-fun .def_933 () Bool (or param_e1 .def_932))
(define-fun .def_928 () Bool (= call_firefly.ite21 call_firefly.ite30))
(define-fun .def_929 () Bool (or .def_923 .def_928))
(define-fun .def_922 () Bool (= call_firefly.ite12 call_firefly.ite))
(define-fun .def_924 () Bool (or .def_922 .def_923))
(define-fun .def_918 () Bool (= call_firefly.ite11 call_firefly.ite12))
(define-fun .def_920 () Bool (or .def_918 param_e1))
(define-fun .def_925 () Bool (and .def_920 .def_924))
(define-fun .def_930 () Bool (and .def_925 .def_929))
(define-fun .def_934 () Bool (and .def_930 .def_933))
(define-fun .def_914 () Bool (= call_firefly.ite40 call_firefly.ite39))
(define-fun .def_915 () Bool (or param_e2 .def_914))
(define-fun .def_910 () Bool (= call_firefly.ite31 call_firefly.ite40))
(define-fun .def_911 () Bool (or .def_896 .def_910))
(define-fun .def_905 () Bool (= call_firefly.ite20 call_firefly.ite19))
(define-fun .def_906 () Bool (or param_e2 .def_905))
(define-fun .def_901 () Bool (= call_firefly.ite13 call_firefly.ite20))
(define-fun .def_902 () Bool (or .def_896 .def_901))
(define-fun .def_895 () Bool (= call_firefly.ite11 call_firefly.ite2))
(define-fun .def_897 () Bool (or .def_895 .def_896))
(define-fun .def_891 () Bool (= call_firefly.ite11 call_firefly.ite10))
(define-fun .def_893 () Bool (or .def_891 param_e2))
(define-fun .def_898 () Bool (and .def_893 .def_897))
(define-fun .def_903 () Bool (and .def_898 .def_902))
(define-fun .def_907 () Bool (and .def_903 .def_906))
(define-fun .def_912 () Bool (and .def_907 .def_911))
(define-fun .def_916 () Bool (and .def_912 .def_915))
(define-fun .def_935 () Bool (and .def_916 .def_934))
(define-fun .def_960 () Bool (and .def_935 .def_959))
(define-fun .def_978 () Bool (and .def_960 .def_977))
(define-fun .def_995 () Bool (and .def_978 .def_994))
(define-fun .def_1011 () Bool (and .def_995 .def_1010))
(define-fun .def_1025 () Bool (and .def_1011 .def_1024))
(define-fun .def_1031 () Bool (and .def_1025 .def_1030))
(define-fun .def_1035 () Bool (and .def_1031 .def_1034))
(define-fun .def_1039 () Bool (and .def_1035 .def_1038))
(define-fun .def_1043 () Bool (and .def_1039 .def_1042))
(define-fun .def_1047 () Bool (and .def_1043 .def_1046))
(define-fun .def_1050 () Bool (and .def_1047 .def_1049))
(define-fun .def_1052 () Bool (and .def_1050 .def_1051))
(define-fun .def_1054 () Bool (and .def_1052 .def_1053))
(define-fun .def_1056 () Bool (and .def_1054 .def_1055))
(define-fun .def_1058 () Bool (and .def_1056 .def_1057))
(define-fun .def_1060 () Bool (and .def_1058 .def_1059))
(define-fun .def_1112 () Bool (and .def_1060 .def_1111))
(define-fun .def_1114 () Bool (and .def_1112 .def_1113))
(define-fun .def_882 () Bool (<= param_i_invalid 0))
(define-fun .def_883 () Bool (not .def_882))
(define-fun .def_885 () Bool (and .def_883 call_excludes8.excludes))
(define-fun .def_887 () Bool (= .def_885 call_Sofar.flby))
(define-fun .def_880 () Bool (= call_firefly.flby5 0))
(define-fun .def_877 () Bool (= call_firefly.flby4 0))
(define-fun .def_874 () Bool (= call_firefly.flby3 0))
(define-fun .def_871 () Bool (= call_firefly.flby2 call_firefly.mem_invalid))
(define-fun .def_867 () Bool (= param_i_invalid call_firefly.flby))
(define-fun .def_862 () Bool (= call_firefly.ite25 0))
(define-fun .def_861 () Bool (not call_firefly.garde8))
(define-fun .def_863 () Bool (or .def_861 .def_862))
(define-fun .def_857 () Bool (= call_firefly.ite15 1))
(define-fun .def_855 () Bool (not call_firefly.garde6))
(define-fun .def_858 () Bool (or .def_855 .def_857))
(define-fun .def_851 () Bool (= call_firefly.ite22 0))
(define-fun .def_849 () Bool (not call_firefly.garde3))
(define-fun .def_852 () Bool (or .def_849 .def_851))
(define-fun .def_844 () Bool (= call_firefly.ite35 call_firefly.ite36))
(define-fun .def_845 () Bool (or .def_835 .def_844))
(define-fun .def_839 () Bool (= call_firefly.ite6 call_firefly.ite7))
(define-fun .def_840 () Bool (or .def_835 .def_839))
(define-fun .def_833 () Bool (= call_firefly.ite25 call_firefly.ite26))
(define-fun .def_836 () Bool (or .def_833 .def_835))
(define-fun .def_841 () Bool (and .def_836 .def_840))
(define-fun .def_846 () Bool (and .def_841 .def_845))
(define-fun .def_825 () Bool (= call_firefly.ite16 call_firefly.ite17))
(define-fun .def_828 () Bool (or .def_825 .def_827))
(define-fun .def_830 () Bool (and .def_828 flby))
(define-fun .def_847 () Bool (and .def_830 .def_846))
(define-fun .def_853 () Bool (and .def_847 .def_852))
(define-fun .def_859 () Bool (and .def_853 .def_858))
(define-fun .def_864 () Bool (and .def_859 .def_863))
(define-fun .def_868 () Bool (and .def_864 .def_867))
(define-fun .def_872 () Bool (and .def_868 .def_871))
(define-fun .def_875 () Bool (and .def_872 .def_874))
(define-fun .def_878 () Bool (and .def_875 .def_877))
(define-fun .def_881 () Bool (and .def_878 .def_880))
(define-fun .def_888 () Bool (and .def_881 .def_887))
(define-fun .def_1115 () Bool (and .def_888 .def_1114))
(assert .def_1115)
